
******************************************************************************
This program contains Ipopt, a library for large-scale nonlinear optimization.
 Ipopt is released as open source code under the Eclipse Public License (EPL).
         For more information visit http://projects.coin-or.org/Ipopt
******************************************************************************

This is Ipopt version 3.12.6, running with linear solver ma57.

Number of nonzeros in equality constraint Jacobian...:        0
Number of nonzeros in inequality constraint Jacobian.:       21
Number of nonzeros in Lagrangian Hessian.............:        9

Total number of variables............................:        7
                     variables with only lower bounds:        0
                variables with lower and upper bounds:        0
                     variables with only upper bounds:        0
Total number of equality constraints.................:        0
Total number of inequality constraints...............:        4
        inequality constraints with only lower bounds:        4
   inequality constraints with lower and upper bounds:        0
        inequality constraints with only upper bounds:        0

iter    objective    inf_pr   inf_du lg(mu)  ||d||  lg(rg) alpha_du alpha_pr  ls
   0  7.1400000e+02 0.00e+00 4.34e+00  -1.0 0.00e+00    -  0.00e+00 0.00e+00   0
   1  7.1069037e+02 0.00e+00 5.09e+00  -1.0 6.70e+01    -  1.00e+00 1.56e-02f  7
   2  6.8915907e+02 5.48e-01 4.25e+00  -1.0 6.88e+01    -  8.63e-01 1.87e-01f  1
   3  6.7125311e+02 7.39e+00 4.30e+00  -1.0 3.95e+01    -  1.00e+00 1.00e+00f  1
   4  6.7099377e+02 7.16e+00 4.17e+00  -1.0 2.50e+01    -  1.00e+00 3.12e-02f  6
   5  6.7857281e+02 9.56e-02 5.79e-01  -1.0 1.63e+01    -  1.00e+00 1.00e+00h  1
   6  6.7869919e+02 0.00e+00 1.89e-02  -1.7 8.76e-01    -  1.00e+00 1.00e+00h  1
   7  6.7867979e+02 0.00e+00 2.07e-05  -3.8 5.23e-02    -  1.00e+00 1.00e+00h  1
Reallocating memory for MA57: lfact (371)
   8  6.7867964e+02 0.00e+00 6.09e-11  -5.7 4.21e-04    -  1.00e+00 1.00e+00h  1
   9  6.7867964e+02 0.00e+00 2.51e-14  -8.6 4.98e-06    -  1.00e+00 1.00e+00h  1

Number of Iterations....: 9

                                   (scaled)                 (unscaled)
Objective...............:   6.7867963787969938e+02    6.7867963787969938e+02
Dual infeasibility......:   2.5059035597119616e-14    2.5059035597119616e-14
Constraint violation....:   0.0000000000000000e+00    0.0000000000000000e+00
Complementarity.........:   2.5059460682832219e-09    2.5059460682832219e-09
Overall NLP error.......:   2.5059460682832219e-09    2.5059460682832219e-09


Number of objective function evaluations             = 27
Number of objective gradient evaluations             = 10
Number of equality constraint evaluations            = 0
Number of inequality constraint evaluations          = 27
Number of equality constraint Jacobian evaluations   = 0
Number of inequality constraint Jacobian evaluations = 10
Number of Lagrangian Hessian evaluations             = 9
Total CPU secs in IPOPT (w/o function evaluations)   =      0.007
Total CPU secs in NLP function evaluations           =      0.000

EXIT: Optimal Solution Found.

************************ CUTEst statistics ************************


 Package used            :  IPOPT
 Problem                 :  HS100MOD  
 # variables             =               7
 # constraints           =               4
 # objective functions   =        0.3800000E+02
 # objective gradients   =        0.1100000E+02
 # objective Hessians    =        0.1000000E+02
 # Hessian-vector prdct  =        0.0000000E+00
 # constraints functions =        0.3900000E+02
 # constraints gradients =        0.1200000E+02
 # constraints Hessians  =        0.1000000E+02
 Exit code               =               0
 Final f                 =   0.6786796E+03
 Set up time             =            0.00 seconds
 Solve time              =            0.02 seconds


******************************************************************

System Time =       0.0040000002 s.
